data/results/2026_03_24_16_34_25_set_vm-3-t3_vm-3-t3_s002_g001_max.sol
# Objective value = 285
c_n0n1n3n5n6n7n11 7
c_n1n3n5n6n7n11 5
c_n0n3n5n6n7n11 5
c_n0n1n5n6n7n11 5
c_n0n1n3n6n7n11 6
c_n0n1n3n5n7n11 6
c_n0n1n3n5n6n11 5
c_n0n1n3n5n6n7 5
c_n3n5n6n7n11 3
c_n1n5n6n7n11 3
c_n1n3n6n7n11 4
c_n1n3n5n7n11 5
c_n1n3n5n6n11 4
c_n1n3n5n6n7 3
c_n0n5n6n7n11 4
c_n0n3n6n7n11 5
c_n0n3n5n7n11 4
c_n0n3n5n6n11 3
c_n0n3n5n6n7 3
c_n0n1n6n7n11 4
c_n0n1n5n7n11 4
c_n0n1n5n6n11 3
c_n0n1n5n6n7 4
c_n0n1n3n7n11 5
c_n0n1n3n6n11 4
c_n0n1n3n6n7 4
c_n0n1n3n5n11 4
c_n0n1n3n5n7 4
c_n0n1n3n5n6 4
c_n5n6n7n11 2
c_n3n6n7n11 3
c_n3n5n7n11 3
c_n3n5n6n11 2
c_n3n5n6n7 1
c_n1n6n7n11 2
c_n1n5n7n11 3
c_n1n5n6n11 2
c_n1n5n6n7 2
c_n1n3n7n11 4
c_n1n3n6n11 3
c_n1n3n6n7 2
c_n1n3n5n11 4
c_n1n3n5n7 3
c_n1n3n5n6 3
c_n0n6n7n11 4
c_n0n5n7n11 3
c_n0n5n6n11 2
c_n0n5n6n7 3
c_n0n3n7n11 4
c_n0n3n6n11 3
c_n0n3n6n7 3
c_n0n3n5n11 2
c_n0n3n5n7 2
c_n0n3n5n6 2
c_n0n1n7n11 3
c_n0n1n6n11 2
c_n0n1n6n7 3
c_n0n1n5n11 2
c_n0n1n5n7 3
c_n0n1n5n6 3
c_n0n1n3n11 3
c_n0n1n3n7 3
c_n0n1n3n6 3
c_n0n1n3n5 3
c_n6n7n11 2
c_n5n7n11 2
c_n5n6n11 1
c_n5n6n7 1
c_n3n7n11 3
c_n3n6n11 2
c_n3n6n7 1
c_n3n5n11 2
c_n3n5n7 1
c_n3n5n6 1
c_n1n7n11 2
c_n1n6n11 1
c_n1n6n7 1
c_n1n5n11 2
c_n1n5n7 2
c_n1n5n6 2
c_n1n3n11 3
c_n1n3n7 2
c_n1n3n6 2
c_n1n3n5 3
c_n0n7n11 3
c_n0n6n11 2
c_n0n6n7 3
c_n0n5n11 1
c_n0n5n7 2
c_n0n5n6 2
c_n0n3n11 2
c_n0n3n7 2
c_n0n3n6 2
c_n0n3n5 1
c_n0n1n11 1
c_n0n1n7 2
c_n0n1n6 2
c_n0n1n5 2
c_n0n1n3 2
y_n0n1 0
y_n1n2 1
y_n0n2 1
y_n1n3 1
y_n0n3 0
y_n1n4 1
y_n0n4 1
y_n1n5 0
y_n0n5 0
y_n1n6 1
y_n0n6 1
y_n1n7 1
y_n0n7 0
y_n1n8 0
y_n0n8 0
y_n1n9 0
y_n0n9 0
y_n1n10 0
y_n0n10 0
y_n1n11 1
y_n0n11 0
y_n2n3 0
y_n2n4 0
y_n2n5 0
y_n2n6 0
y_n2n7 0
y_n2n8 0
y_n2n9 0
y_n2n10 0
y_n2n11 0
y_n3n4 1
y_n3n5 0
y_n3n6 1
y_n3n7 1
y_n3n8 0
y_n3n9 0
y_n3n10 0
y_n3n11 1
y_n4n5 0
y_n4n6 0
y_n4n7 0
y_n4n8 0
y_n4n9 0
y_n4n10 0
y_n4n11 0
y_n5n6 1
y_n5n7 1
y_n5n8 0
y_n5n9 0
y_n5n10 0
y_n5n11 1
y_n6n7 0
y_n6n8 0
y_n6n9 0
y_n6n10 0
y_n6n11 0
y_n7n8 0
y_n7n9 0
y_n7n10 0
y_n7n11 0
y_n8n9 0
y_n8n10 0
y_n8n11 1
y_n9n10 0
y_n9n11 1
y_n10n11 1
pos_n0 8
pos_n1 4
pos_n2 11
pos_n3 5
pos_n4 10
pos_n5 3
pos_n6 9
pos_n7 7
pos_n8 2
pos_n9 1
pos_n10 0
pos_n11 6
z_n1n11 0
z_n5n11 0
z_n6n11 0
z_n3n11 1
z_n7n11 1
z_n1n5 1
z_n1n6 0
z_n1n3 1
z_n1n7 0
z_n5n6 0
z_n3n5 0
z_n5n7 0
z_n3n6 0
z_n6n7 0
z_n3n7 0
z_n0n11 0
z_n0n5 0
z_n0n6 1
z_n0n3 0
z_n0n7 1
z_n5n9 0
z_n0n1 0
z_n8n9 0
z_n2n11 0
z_n0n2 0
z_n1n2 0
z_n2n6 0
z_n2n3 0
z_n2n7 0
z_n4n10 0
z_n2n4 0
